sat

(= v1_13 1)
(= v1_14 38)
(= v2_14 22)
(= v3_1 124)
(= v1_6 1)
(= d_3 0)
(= v2_17 69)
(= p_0 0)
(= v3_14 104)
(= d_7 0)
(= t_9 60)
(= v3_6 156)
(= t_12 70)
(= v3_10 60)
(= p_16 1)
(= v3_15 83)
(= v3_11 39)
(= v2_18 37)
(= t_21 0)
(= v3_3 78)
(= v3_20 17)
(= d_13 66)
(= p_20 1)
(= p_12 3)
(= v2_9 103)
(= v1_8 17)
(= v1_11 70)
(= v2_12 83)
(= v2_19 20)
(= t_1 189)
(= d_17 49)
(= v1_20 17)
(= t_2 71)
(= d_20 0)
(= p_9 1)
(= t_14 296)
(= t_19 1)
(= p_11 2)
(= v1_21 0)
(= t_11 233)
(= v3_7 127)
(= d_2 118)
(= t_0 300)
(= v3_4 57)
(= v1_12 33)
(= d_16 115)
(= v2_2 103)
(= v2_20 17)
(= v3_9 89)
(= v1_10 91)
(= v2_15 1)
(= v3_13 133)
(= v1_9 0)
(= v3_8 106)
(= d_21 1)
(= v2_5 82)
(= v1_18 51)
(= t_15 179)
(= p_18 1)
(= d_10 0)
(= p_6 1)
(= p_19 2)
(= v2_3 74)
(= d_8 120)
(= v1_7 38)
(= v3_17 34)
(= v1_1 19)
(= t_3 300)
(= p_4 2)
(= d_12 163)
(= d_15 117)
(= v1_17 83)
(= v2_1 9)
(= p_1 2)
(= p_10 0)
(= p_15 2)
(= d_18 0)
(= d_9 120)
(= v1_4 70)
(= p_5 3)
(= d_1 111)
(= d_5 168)
(= p_2 1)
(= t_7 300)
(= t_17 15)
(= t_16 64)
(= v3_21 0)
(= v2_7 21)
(= v3_16 66)
(= d_14 0)
(= p_21 2)
(= d_19 14)
(= v1_3 91)
(= d_11 67)
(= p_3 0)
(= v3_5 20)
(= t_13 4)
(= t_6 0)
(= t_20 1)
(= v2_8 0)
(= p_13 1)
(= v2_11 53)
(= d_0 0)
(= t_10 300)
(= t_18 15)
(= v3_18 51)
(= v1_0 40)
(= v2_4 53)
(= v2_16 101)
(= d_6 66)
(= v2_6 50)
(= v1_19 34)
(= v1_15 17)
(= p_14 0)
(= d_4 66)
(= p_17 3)
(= v2_21 0)
(= p_8 2)
(= t_4 234)
(= v3_0 145)
(= v3_12 2)
(= v1_16 0)
(= v1_5 33)
(= t_8 180)
(= v2_10 74)
(= v2_13 51)
(= v2_0 30)
(= v3_19 34)
(= t_5 66)
(= p_7 0)
(= v1_2 2)
(= v3_2 107)

